S = 5;
start = [|0,0,6,23,10,0,0,20,0,0,0,0,0,8,0,0,0,21,0,0,5,0,0,14,15|
3,11,24,9,0,0,0,0,0,0,0,1,0,0,23,13,18,0,0,17,0,0,0,0,0|
0,0,0,7,0,0,12,0,0,24,0,19,0,10,0,0,0,5,14,0,0,0,0,16,13|
0,0,0,1,0,0,0,21,17,0,11,0,0,9,20,0,0,0,0,0,0,0,0,0,6|
0,2,0,0,20,0,10,11,0,0,0,0,13,0,0,0,0,0,0,0,7,0,0,0,0|
9,4,0,0,0,0,0,3,20,0,0,13,15,0,0,0,0,24,0,0,0,0,1,0,23|
0,0,0,5,0,0,11,0,0,0,0,0,0,0,0,0,0,0,0,0,0,7,0,0,0|
0,0,0,0,11,0,0,0,22,0,0,0,0,0,0,0,8,13,0,18,0,0,0,0,0|
0,0,0,0,23,0,0,0,0,0,0,0,0,0,0,0,3,1,0,0,0,0,0,0,0|
0,0,0,0,0,24,5,17,0,0,0,9,0,22,16,10,23,0,0,0,3,0,0,0,19|
0,24,0,21,6,0,0,1,4,0,2,5,0,23,0,11,0,15,0,13,22,0,25,0,0|
0,0,0,0,0,18,3,0,0,0,19,0,0,0,15,0,0,10,21,0,1,0,0,5,0|
0,14,0,0,0,0,0,0,0,0,0,10,18,1,0,0,0,0,7,0,0,0,4,0,8|
19,1,0,0,15,0,0,0,2,0,0,21,0,0,8,6,0,18,0,12,0,9,0,24,11|
4,0,5,0,0,0,0,0,25,0,0,0,0,0,0,1,0,0,0,0,10,0,13,18,21|
0,0,0,0,12,0,17,23,0,0,0,20,0,0,22,0,0,0,0,0,0,19,0,0,0|
14,0,0,0,22,4,0,0,0,0,24,0,0,19,0,0,0,0,23,0,0,5,0,0,0|
0,3,8,0,9,16,0,0,0,7,0,0,14,0,5,0,0,22,0,10,0,6,17,0,0|
0,25,0,4,0,0,0,14,0,0,18,0,8,0,0,0,0,0,0,0,0,0,0,0,3|
0,0,0,0,5,0,18,9,0,0,16,0,0,25,0,7,4,0,3,15,12,0,0,0,0|
15,20,0,0,13,12,14,0,0,0,0,0,5,17,0,0,11,0,18,0,0,16,0,9,0|
0,16,18,19,0,0,0,0,0,20,0,0,0,0,14,25,0,0,0,3,0,10,11,0,0|
0,6,0,25,7,21,0,0,0,16,1,22,0,0,0,0,0,0,9,0,0,0,0,0,0|
0,0,17,0,0,0,0,2,3,0,0,0,0,0,0,0,21,6,0,0,18,25,0,0,0|
0,0,0,3,4,0,0,0,0,0,0,8,23,0,21,15,5,0,0,24,0,0,6,0,22|];